p edge 100 495
e 1 18
e 1 48
e 1 68
e 1 72
e 1 91
e 1 92
e 1 98
e 2 6
e 2 33
e 2 36
e 2 43
e 2 48
e 2 70
e 2 85
e 3 5
e 3 8
e 3 12
e 3 17
e 3 26
e 3 28
e 3 33
e 3 45
e 3 54
e 3 84
e 3 88
e 3 96
e 4 18
e 4 59
e 4 63
e 4 75
e 4 83
e 4 92
e 4 95
e 5 6
e 5 12
e 5 29
e 5 33
e 5 41
e 5 46
e 5 57
e 5 61
e 5 67
e 5 69
e 6 11
e 6 13
e 6 19
e 6 27
e 6 44
e 6 45
e 6 65
e 6 77
e 6 78
e 6 85
e 6 86
e 7 9
e 7 10
e 7 22
e 7 60
e 7 75
e 7 76
e 8 20
e 8 29
e 8 30
e 8 34
e 8 38
e 8 44
e 8 53
e 8 71
e 8 75
e 8 84
e 8 95
e 9 11
e 9 20
e 9 23
e 9 33
e 9 41
e 9 57
e 9 63
e 9 66
e 9 75
e 9 82
e 9 97
e 10 23
e 10 39
e 10 42
e 10 47
e 10 52
e 11 12
e 11 21
e 11 28
e 11 29
e 11 43
e 11 53
e 11 57
e 11 62
e 11 64
e 11 70
e 11 76
e 11 86
e 11 93
e 12 20
e 12 24
e 12 31
e 12 55
e 12 57
e 12 62
e 12 66
e 12 78
e 12 95
e 12 98
e 13 16
e 13 20
e 13 23
e 13 39
e 13 57
e 13 61
e 13 82
e 13 87
e 13 91
e 14 16
e 14 25
e 14 31
e 14 32
e 14 43
e 14 46
e 14 76
e 14 88
e 14 92
e 15 18
e 15 78
e 15 81
e 15 95
e 15 100
e 16 18
e 16 23
e 16 27
e 16 45
e 16 51
e 16 79
e 16 85
e 16 93
e 16 94
e 16 99
e 17 22
e 17 32
e 17 37
e 17 47
e 17 61
e 17 66
e 17 69
e 17 81
e 17 82
e 17 86
e 18 51
e 18 54
e 18 75
e 18 78
e 18 81
e 18 83
e 18 84
e 18 88
e 18 97
e 18 99
e 19 27
e 19 40
e 19 45
e 19 55
e 19 71
e 19 74
e 19 75
e 19 78
e 19 89
e 19 91
e 19 97
e 20 24
e 20 41
e 20 65
e 20 72
e 20 74
e 20 79
e 20 81
e 21 29
e 21 44
e 21 47
e 21 54
e 21 56
e 21 80
e 21 81
e 21 92
e 21 94
e 21 99
e 22 24
e 22 27
e 22 29
e 22 35
e 22 45
e 22 57
e 22 91
e 22 92
e 23 27
e 23 29
e 23 30
e 23 31
e 23 35
e 23 37
e 23 39
e 23 96
e 23 98
e 24 37
e 24 53
e 24 65
e 24 66
e 24 72
e 24 76
e 24 79
e 24 82
e 25 32
e 25 34
e 25 42
e 25 48
e 25 52
e 25 54
e 25 55
e 25 62
e 25 67
e 25 70
e 25 73
e 25 84
e 25 85
e 25 94
e 26 56
e 26 57
e 26 62
e 26 72
e 26 79
e 26 87
e 26 94
e 26 100
e 27 30
e 27 47
e 27 70
e 27 90
e 27 92
e 27 98
e 28 33
e 28 40
e 28 57
e 28 58
e 28 86
e 28 92
e 29 31
e 29 36
e 29 60
e 29 67
e 29 71
e 29 83
e 29 85
e 29 90
e 29 93
e 30 35
e 30 36
e 30 54
e 30 62
e 30 78
e 30 93
e 30 96
e 31 38
e 31 49
e 31 67
e 31 78
e 31 84
e 31 99
e 32 64
e 32 68
e 32 70
e 32 71
e 32 78
e 32 80
e 32 81
e 32 83
e 32 85
e 32 87
e 32 91
e 32 96
e 33 36
e 33 40
e 33 47
e 33 59
e 33 93
e 34 47
e 34 48
e 34 52
e 34 58
e 34 75
e 34 81
e 34 83
e 34 92
e 34 97
e 35 38
e 35 56
e 35 63
e 35 66
e 35 71
e 35 83
e 35 85
e 35 89
e 36 40
e 36 42
e 36 44
e 36 46
e 36 63
e 36 77
e 37 44
e 37 72
e 37 87
e 37 89
e 37 99
e 38 58
e 38 60
e 38 76
e 38 79
e 38 85
e 38 86
e 38 92
e 39 58
e 39 60
e 39 70
e 40 51
e 40 65
e 40 68
e 40 79
e 40 93
e 41 44
e 41 48
e 41 65
e 41 85
e 42 68
e 42 70
e 42 76
e 42 94
e 42 96
e 43 45
e 43 65
e 43 90
e 43 94
e 43 97
e 44 53
e 44 70
e 44 79
e 44 80
e 44 81
e 44 91
e 45 47
e 45 69
e 45 72
e 45 74
e 45 98
e 46 83
e 47 52
e 48 58
e 48 66
e 48 88
e 48 92
e 48 97
e 49 67
e 49 97
e 50 54
e 50 57
e 51 52
e 51 53
e 51 61
e 51 79
e 51 80
e 52 69
e 52 84
e 53 61
e 53 67
e 53 94
e 53 100
e 54 58
e 54 66
e 54 79
e 54 82
e 54 86
e 54 90
e 54 95
e 55 69
e 55 74
e 55 76
e 55 84
e 55 87
e 55 88
e 56 60
e 56 65
e 56 68
e 56 71
e 56 76
e 56 80
e 56 81
e 56 90
e 57 65
e 57 97
e 57 98
e 58 90
e 58 98
e 59 72
e 59 85
e 59 86
e 59 92
e 59 97
e 60 69
e 60 72
e 60 75
e 60 78
e 60 82
e 60 85
e 60 100
e 61 69
e 61 72
e 61 81
e 61 83
e 61 100
e 62 64
e 62 69
e 63 67
e 63 68
e 63 73
e 63 95
e 64 81
e 64 86
e 65 73
e 65 74
e 66 74
e 66 86
e 66 93
e 67 80
e 67 90
e 67 92
e 67 97
e 68 75
e 68 82
e 69 70
e 69 74
e 69 76
e 70 79
e 71 84
e 72 81
e 72 82
e 72 84
e 73 77
e 73 98
e 74 86
e 74 87
e 74 92
e 74 94
e 75 76
e 75 79
e 75 95
e 76 79
e 76 97
e 76 98
e 77 91
e 77 93
e 77 94
e 78 81
e 78 85
e 78 90
e 79 85
e 79 94
e 79 100
e 80 89
e 82 89
e 82 90
e 82 92
e 82 94
e 82 96
e 83 84
e 84 87
e 84 90
e 85 97
e 86 100
e 87 96
e 87 99
e 88 89
e 88 94
e 89 99
e 90 100
e 91 92
e 93 95
e 93 98
e 94 97
e 94 99
e 95 96
e 96 99
e 96 100
